0000000000000000
0000000000000000
0011111110000000
0000000110000000
0000000110000000
0000000110000000
0000000110000000
0001111110000000
0001000110000000
0001000110000000
0001000110000000
0001000110000000
0000000000000000
0000000000000000
0000000000000000
0000000000000000
